sat
(
  (define-fun C2_VM3 () Int
    0)
  (define-fun MemProv2 () Int
    7500)
  (define-fun C3_VM5 () Int
    0)
  (define-fun C1_VM3 () Int
    0)
  (define-fun PriceProv2 () Int
    210)
  (define-fun ProcProv4 () Int
    2)
  (define-fun MemProv5 () Int
    3750)
  (define-fun StorageProv5 () Int
    2000)
  (define-fun C2_VM1 () Int
    0)
  (define-fun C2_VM2 () Int
    0)
  (define-fun C5_VM2 () Int
    0)
  (define-fun VM1Type () Int
    341)
  (define-fun C5_VM3 () Int
    0)
  (define-fun C3_VM3 () Int
    1)
  (define-fun C5_VM4 () Int
    0)
  (define-fun MemProv1 () Int
    7500)
  (define-fun VM5Type () Int
    433)
  (define-fun MemProv3 () Int
    7500)
  (define-fun C4_VM1 () Int
    0)
  (define-fun C4_VM5 () Int
    0)
  (define-fun C5_VM5 () Int
    0)
  (define-fun C1_VM5 () Int
    0)
  (define-fun MemProv4 () Int
    3750)
  (define-fun C3_VM4 () Int
    0)
  (define-fun StorageProv3 () Int
    2000)
  (define-fun StorageProv4 () Int
    2000)
  (define-fun ProcProv1 () Int
    4)
  (define-fun C3_VM1 () Int
    0)
  (define-fun PriceProv3 () Int
    210)
  (define-fun ProcProv2 () Int
    4)
  (define-fun PriceProv1 () Int
    210)
  (define-fun ProcProv5 () Int
    2)
  (define-fun PriceProv4 () Int
    116)
  (define-fun C3_VM2 () Int
    0)
  (define-fun C4_VM2 () Int
    0)
  (define-fun VM2Type () Int
    341)
  (define-fun VM3Type () Int
    341)
  (define-fun C4_VM4 () Int
    1)
  (define-fun PriceProv5 () Int
    116)
  (define-fun C4_VM3 () Int
    0)
  (define-fun C2_VM5 () Int
    1)
  (define-fun StorageProv1 () Int
    2000)
  (define-fun StorageProv2 () Int
    2000)
  (define-fun ProcProv3 () Int
    4)
  (define-fun C2_VM4 () Int
    0)
  (define-fun C1_VM4 () Int
    0)
  (define-fun C1_VM2 () Int
    1)
  (define-fun VM4Type () Int
    433)
  (define-fun C5_VM1 () Int
    1)
  (define-fun C1_VM1 () Int
    0)
)
(objectives
 ((+ 0 PriceProv1 PriceProv2 PriceProv3 PriceProv4 PriceProv5) 862)
)
(:added-eqs                   337444
 :arith-eq-adapter            134712
 :arith-bound-propagations-lp 175385
 :arith-conflicts             159
 :arith-diseq                 1556092
 :arith-fixed-eqs             1954
 :arith-lower                 2313671
 :arith-make-feasible         127416
 :arith-max-columns           553
 :arith-max-rows              17
 :arith-upper                 838356
 :binary-propagations         2782818
 :bv-bit2core                 16829
 :bv-dynamic-diseqs           1198208
 :bv-dynamic-eqs              3
 :bv->core-eq                 2836
 :conflicts                   5749
 :decisions                   424095
 :del-clause                  1443825
 :final-checks                121
 :max-memory                  109.50
 :memory                      104.30
 :minimized-lits              614834
 :mk-bool-var                 264871
 :mk-clause                   1443974
 :mk-clause-binary            10307
 :num-allocs                  1078926710
 :num-checks                  93
 :pb-conflicts                58
 :pb-predicates               4
 :pb-propagations             888
 :pb-resolves                 57
 :propagations                8994184
 :restarts                    45
 :rlimit-count                50478302
 :solve-eqs-elim-vars         2
 :solve-eqs-steps             16
 :time                        4.34
 :total-time                  4.31)
